node 0 w: 4.62, h: 10.36
node 1 w: 7.0, h: 3.78
node 2 w: 2.12026-06-21 12:41:17 - INFO - Set parameter WLSAccessID
2026-06-21 12:41:17 - INFO - Set parameter WLSSecret
2026-06-21 12:41:17 - INFO - Set parameter LicenseID to value 2756663
2026-06-21 12:41:17 - INFO - Academic license 2756663 - for non-commercial use only - registered to hu___@sjtu.edu.cn
2026-06-21 12:41:17 - INFO - Set parameter TimeLimit to value 300
2026-06-21 12:41:17 - INFO - Set parameter MIPGap to value 0
2026-06-21 12:41:17 - INFO - Set parameter MIPFocus to value 3
2026-06-21 12:41:17 - INFO - Set parameter Heuristics to value 0.5
2026-06-21 12:41:17 - INFO - Set parameter LogToConsole to value 1
2026-06-21 12:41:17 - INFO - Gurobi Optimizer version 13.0.1 build v13.0.1rc0 (linux64 - "Ubuntu 20.04.6 LTS")
2026-06-21 12:41:17 - INFO - 
2026-06-21 12:41:17 - INFO - CPU model: AMD Ryzen 9 9950X3D 16-Core Processor, instruction set [SSE2|AVX|AVX2|AVX512]
2026-06-21 12:41:17 - INFO - Thread count: 14 physical cores, 28 logical processors, using up to 28 threads
2026-06-21 12:41:17 - INFO - 
2026-06-21 12:41:17 - INFO - Non-default parameters:
2026-06-21 12:41:17 - INFO - TimeLimit  300
2026-06-21 12:41:17 - INFO - MIPGap  0
2026-06-21 12:41:17 - INFO - Heuristics  0.5
2026-06-21 12:41:17 - INFO - MIPFocus  3
2026-06-21 12:41:17 - INFO - 
2026-06-21 12:41:17 - INFO - Academic license 2756663 - for non-commercial use only - registered to hu___@sjtu.edu.cn
2026-06-21 12:41:17 - INFO - Optimize a model with 1800 rows, 825 columns and 6189 nonzeros (Min)
2026-06-21 12:41:17 - INFO - Model fingerprint: 0x71d715f9
2026-06-21 12:41:17 - INFO - Model has 4 linear objective coefficients
2026-06-21 12:41:17 - INFO - Variable types: 311 continuous, 514 integer (514 binary)
2026-06-21 12:41:17 - INFO - Coefficient statistics:
2026-06-21 12:41:17 - INFO -   Matrix range     [3e-01, 3e+03]
2026-06-21 12:41:17 - INFO -   Objective range  [6e-06, 1e-01]
2026-06-21 12:41:17 - INFO -   Bounds range     [9e-01, 2e+07]
2026-06-21 12:41:17 - INFO -   RHS range        [9e-01, 3e+02]
2026-06-21 12:41:17 - INFO - 
2026-06-21 12:41:17 - INFO - Presolve removed 136 rows and 114 columns
2026-06-21 12:41:17 - INFO - Presolve time: 0.01s
2026-06-21 12:41:17 - INFO - Presolved: 1664 rows, 711 columns, 5852 nonzeros
2026-06-21 12:41:17 - INFO - Variable types: 223 continuous, 488 integer (488 binary)
2026-06-21 12:41:17 - INFO - Root relaxation presolve removed 224 rows and 58 columns
2026-06-21 12:41:17 - INFO - Root relaxation presolved: 1440 rows, 675 columns, 5328 nonzeros
2026-06-21 12:41:17 - INFO - 
2026-06-21 12:41:17 - INFO - 
2026-06-21 12:41:17 - INFO - Root relaxation: objective -1.049163e+01, 345 iterations, 0.00 seconds (0.01 work units)
2026-06-21 12:41:17 - INFO - 
2026-06-21 12:41:17 - INFO -     Nodes    |    Current Node    |     Objective Bounds      |     Work
2026-06-21 12:41:17 - INFO -  Expl Unexpl |  Obj  Depth IntInf | Incumbent    BestBd   Gap | It/Node Time
2026-06-21 12:41:17 - INFO - 
2026-06-21 12:41:17 - INFO -      0     0  -10.49163    0  206          -  -10.49163      -     -    0s
2026-06-21 12:41:17 - INFO -      0     0   -8.49189    0  221          -   -8.49189      -     -    0s
2026-06-21 12:41:17 - INFO -      0     0   -8.49189    0  210          -   -8.49189      -     -    0s
2026-06-21 12:41:17 - INFO -      0     0   -8.49189    0  215          -   -8.49189      -     -    0s
2026-06-21 12:41:17 - INFO -      0     0   -7.85543    0  264          -   -7.85543      -     -    0s
2026-06-21 12:41:17 - INFO -      0     0   -7.85543    0  243          -   -7.85543      -     -    0s
2026-06-21 12:41:17 - INFO -      0     0   -6.09018    0  231          -   -6.09018      -     -    0s
2026-06-21 12:41:17 - INFO -      0     0   -6.09018    0  232          -   -6.09018      -     -    0s
2026-06-21 12:41:17 - INFO -      0     0   -6.09018    0  233          -   -6.09018      -     -    0s
2026-06-21 12:41:17 - INFO -      0     0   -6.07373    0  237          -   -6.07373      -     -    0s
2026-06-21 12:41:17 - INFO -      0     0   -6.07373    0  238          -   -6.07373      -     -    0s
2026-06-21 12:41:17 - INFO -      0     0   -2.01935    0  230          -   -2.01935      -     -    0s
2026-06-21 12:41:17 - INFO -      0     0   -2.01935    0  228          -   -2.01935      -     -    0s
2026-06-21 12:41:18 - INFO -      0     0   -2.01935    0  213          -   -2.01935      -     -    1s
2026-06-21 12:41:18 - INFO -      0     0   -1.39364    0  232          -   -1.39364      -     -    1s
2026-06-21 12:41:18 - INFO -      0     0   -1.39364    0  229          -   -1.39364      -     -    1s
2026-06-21 12:41:18 - INFO -      0     0   -1.39364    0  232          -   -1.39364      -     -    1s
2026-06-21 12:41:18 - INFO -      0     0   -1.39364    0  237          -   -1.39364      -     -    1s
2026-06-21 12:41:18 - INFO -      0     0   -0.90906    0  241          -   -0.90906      -     -    1s
2026-06-21 12:41:18 - INFO -      0     0   -0.90906    0  241          -   -0.90906      -     -    1s
2026-06-21 12:41:18 - INFO -      0     0   -0.90906    0  226          -   -0.90906      -     -    1s
2026-06-21 12:41:18 - INFO -      0     0   -0.17875    0  240          -   -0.17875      -     -    1s
2026-06-21 12:41:18 - INFO -      0     0   -0.17875    0  250          -   -0.17875      -     -    1s
2026-06-21 12:41:18 - INFO -      0     0   -0.17875    0  258          -   -0.17875      -     -    1s
2026-06-21 12:41:18 - INFO -      0     0   -0.13234    0  258          -   -0.13234      -     -    1s
2026-06-21 12:41:18 - INFO -      0     0   -0.13234    0  258          -   -0.13234      -     -    1s
2026-06-21 12:41:18 - INFO -      0     0   -0.13234    0  231          -   -0.13234      -     -    1s
2026-06-21 12:41:18 - INFO -      0     0   -0.13234    0  236          -   -0.13234      -     -    1s
2026-06-21 12:41:18 - INFO -      0     0   -0.13234    0  257          -   -0.13234      -     -    1s
2026-06-21 12:41:19 - INFO -      0     0   -0.13234    0  262          -   -0.13234      -     -    1s
2026-06-21 12:41:19 - INFO -      0     0   -0.13234    0  262          -   -0.13234      -     -    1s
2026-06-21 12:41:19 - INFO -      0     0   -0.13234    0  247          -   -0.13234      -     -    2s
2026-06-21 12:41:19 - INFO -      0     0   -0.01395    0  246          -   -0.01395      -     -    2s
2026-06-21 12:41:19 - INFO -      0     0   -0.01395    0  252          -   -0.01395      -     -    2s
2026-06-21 12:41:19 - INFO -      0     0   -0.01395    0  256          -   -0.01395      -     -    2s
2026-06-21 12:41:19 - INFO -      0     0    0.06784    0  242          -    0.06784      -     -    2s
2026-06-21 12:41:19 - INFO -      0     0    0.06784    0  242          -    0.06784      -     -    2s
2026-06-21 12:41:19 - INFO -      0     0    0.06784    0  218          -    0.06784      -     -    2s
2026-06-21 12:41:19 - INFO -      0     0    1.49037    0  232          -    1.49037      -     -    2s
2026-06-21 12:41:19 - INFO -      0     0    1.51660    0  255          -    1.51660      -     -    2s
2026-06-21 12:41:19 - INFO -      0     0    1.51660    0  269          -    1.51660      -     -    2s
2026-06-21 12:41:19 - INFO -      0     0    1.53520    0  278          -    1.53520      -     -    2s
2026-06-21 12:41:19 - INFO -      0     0    3.13635    0  242          -    3.13635      -     -    2s
2026-06-21 12:41:20 - INFO -      0     0    3.13635    0  217          -    3.13635      -     -    2s
2026-06-21 12:41:20 - INFO -      0     0    3.15284    0  236          -    3.15284      -     -    2s
2026-06-21 12:41:20 - INFO -      0     0    3.15284    0  251          -    3.15284      -     -    2s
2026-06-21 12:41:20 - INFO -      0     0    3.15284    0  254          -    3.15284      -     -    3s
2026-06-21 12:41:20 - INFO -      0     0    3.15284    0  243          -    3.15284      -     -    3s
2026-06-21 12:41:20 - INFO -      0     0    3.15284    0  252          -    3.15284      -     -    3s
2026-06-21 12:41:20 - INFO -      0     0    3.15284    0  252          -    3.15284      -     -    3s
2026-06-21 12:41:20 - INFO -      0     0    3.15284    0  252          -    3.15284      -     -    3s
2026-06-21 12:41:20 - INFO -      0     0    3.15284    0  233          -    3.15284      -     -    3s
2026-06-21 12:41:20 - INFO -      0     0    3.16472    0  251          -    3.16472      -     -    3s
2026-06-21 12:41:20 - INFO -      0     0    3.16472    0  270          -    3.16472      -     -    3s
2026-06-21 12:41:20 - INFO -      0     0    3.16472    0  285          -    3.16472      -     -    3s
2026-06-21 12:41:20 - INFO -      0     0    3.16472    0  256          -    3.16472      -     -    3s
2026-06-21 12:41:21 - INFO -      0     0    3.16472    0  255          -    3.16472      -     -    4s
2026-06-21 12:41:21 - INFO -      0     0    3.18244    0  267          -    3.18244      -     -    4s
2026-06-21 12:41:21 - INFO -      0     0    3.18334    0  277          -    3.18334      -     -    4s
2026-06-21 12:41:21 - INFO -      0     0    3.18925    0  260          -    3.18925      -     -    4s
2026-06-21 12:41:21 - INFO -      0     0    3.18925    0  255          -    3.18925      -     -    4s
2026-06-21 12:41:21 - INFO -      0     0    3.19931    0  268          -    3.19931      -     -    4s
2026-06-21 12:41:21 - INFO -      0     0    3.20158    0  275          -    3.20158      -     -    4s
2026-06-21 12:41:21 - INFO -      0     0    3.20158    0  275          -    3.20158      -     -    4s
2026-06-21 12:41:21 - INFO -      0     0    3.20158    0  275          -    3.20158      -     -    4s
2026-06-21 12:41:21 - INFO -      0     0    3.20845    0  275          -    3.20845      -     -    4s
2026-06-21 12:41:21 - INFO -      0     0    3.20845    0  275          -    3.20845      -     -    4s
2026-06-21 12:41:22 - INFO - H    0     0                      26.8347963    3.20845  88.0%     -    5s
2026-06-21 12:41:22 - INFO -      0     2    3.20845    0  275   26.83480    3.20845  88.0%     -    5s
2026-06-21 12:41:23 - INFO - H   21    30                      26.7610230    3.20845  88.0%   559    6s
2026-06-21 12:41:24 - INFO - H   56    58                      16.9830769    3.20845  81.1%   641    6s
2026-06-21 12:41:24 - INFO - H   72    86                      16.9828267    3.75124  77.9%   647    7s
2026-06-21 12:41:24 - INFO - H   79    86                      16.9261104    3.77961  77.7%   673    7s
2026-06-21 12:41:24 - INFO - H   85   114                      16.1856012    3.78448  76.6%   678    7s
2026-06-21 12:41:24 - INFO - H   89   114                      14.5923635    3.78885  74.0%   669    7s
2026-06-21 12:41:24 - INFO - H   93   114                      14.1136167    3.79881  73.1%   657    7s
2026-06-21 12:41:25 - INFO - H  113   151                      14.0771000    3.81885  72.9%   619    7s
2026-06-21 12:41:25 - INFO - H  115   151                      13.7364105    3.81933  72.2%   620    7s
2026-06-21 12:41:25 - INFO - H  194   207                      13.7358138    4.05493  70.5%   678    8s
2026-06-21 12:41:26 - INFO - H  207   226                      13.7011611    4.08605  70.2%   679    8s
2026-06-21 12:41:26 - INFO - H  238   274                      13.6794074    4.10739  70.0%   654    9s
2026-06-21 12:41:27 - INFO - H  336   348                      13.5926706    4.16931  69.3%   644    9s
2026-06-21 12:41:27 - INFO -    388   439    4.35973    8  289   13.59267    4.18192  69.2%   613   10s
2026-06-21 12:41:27 - INFO - H  401   439                      13.4108879    4.18379  68.8%   600   10s
2026-06-21 12:41:27 - INFO - H  423   439                      13.2461292    4.18631  68.4%   589   10s
2026-06-21 12:41:27 - INFO - H  439   487                      13.2319159    4.18889  68.3%   582   10s
2026-06-21 12:41:27 - INFO - H  441   487                      13.2312694    4.18911  68.3%   582   10s
2026-06-21 12:41:27 - INFO - H  459   487                      13.2235643    4.19127  68.3%   568   10s
2026-06-21 12:41:27 - INFO - H  468   487                      13.1164680    4.19222  68.0%   562   10s
2026-06-21 12:41:28 - INFO - H  580   590                      13.0015734    4.23944  67.4%   594   11s
2026-06-21 12:41:28 - INFO - H  586   590                      12.8231030    4.24161  66.9%   593   11s
2026-06-21 12:41:28 - INFO - H  603   605                      12.7954562    4.24964  66.8%   594   11s
2026-06-21 12:41:28 - INFO - H  626   658                      12.7820998    4.25603  66.7%   598   11s
2026-06-21 12:41:28 - INFO - H  657   658                      12.6379918    4.26147  66.3%   585   11s
2026-06-21 12:41:32 - INFO -    867   872    4.47086   10  237   12.63799    4.31600  65.8%   544   15s
2026-06-21 12:41:37 - INFO -   1051  1080    4.82104   11  217   12.63799    4.35960  65.5%   543   20s
2026-06-21 12:41:40 - INFO - H 1315  1284                      12.6368701    4.37209  65.4%   480   23s
2026-06-21 12:41:41 - INFO - H 1334  1509                      12.4795610    4.37225  65.0%   475   23s
2026-06-21 12:41:41 - INFO - H 1449  1508                      12.1903943    4.37264  64.1%   449   23s
2026-06-21 12:41:41 - INFO - H 1584  1508                      11.7898021    4.37370  62.9%   422   23s
2026-06-21 12:41:41 - INFO - H 1604  1690                      11.7585275    4.37415  62.8%   418   24s
2026-06-21 12:41:41 - INFO - H 1652  1690                      10.8022670    4.37470  59.5%   410   24s
2026-06-21 12:41:41 - INFO - H 1845  1811                      10.6225335    4.37853  58.8%   383   24s
2026-06-21 12:41:42 - INFO -   2135  1931    4.44546   10  275   10.62253    4.38833  58.7%   354   25s
2026-06-21 12:41:48 - INFO -   2152  1942    4.42012   10  251   10.62253    4.38833  58.7%   351   31s
2026-06-21 12:41:52 - INFO -   2182  1980    4.38833   27  283   10.62253    4.38833  58.7%   356   35s
2026-06-21 12:41:57 - INFO -   2735  2292    4.96311   36  251   10.62253    4.73141  55.5%   390   40s
2026-06-21 12:42:02 - INFO -   3057  2472    4.96749   39  238   10.62253    4.94894  53.4%   426   45s
2026-06-21 12:42:05 - INFO - H 3302  2467                      10.6225334    5.02864  52.7%   442   48s
2026-06-21 12:42:07 - INFO -   3406  2638    6.92094   37  204   10.62253    5.05262  52.4%   448   50s
   -1.39364    0  237          -   -1.39364      -     -    1s
     0     0   -0.90906    0  241          -   -0.90906      -     -    1s
     0     0   -0.90906    0  241          -   -0.90906      -     -    1s
     0     0   -0.90906    0  226          -   -0.90906      -     -    1s
     0     0   -0.17875    0  240          -   -0.17875      -     -    1s
     0     0   -0.17875    0  250          -   -0.17875      -     -    1s
     0     0   -0.17875    0  258          -   -0.17875      -     -    1s
     0     0   -0.13234    0  258          -   -0.13234      -     -    1s
     0     0   -0.13234    0  258          -   -0.13234      -     -    1s
     0     0   -0.13234    0  231          -   -0.13234      -     -    1s
     0     0   -0.13234    0  236          -   -0.13234      -     -    1s
     0     0   -0.13234    0  257          -   -0.13234      -     -    1s
     0     0   -0.13234    0  262          -   -0.13234      -     -    1s
     0     0   -0.13234    0  262          -   -0.13234      -     -    1s
     0     0   -0.13234    0  247          -   -0.13234      -     -    2s
     0     0   -0.01395    0  246          -   -0.01395      -     -    2s
     0     0   -0.01395    0  252          -   -0.01395      -     -    2s
     0     0   -0.01395    0  256          -   -0.01395      -     -    2s
     0     0    0.06784    0  242          -    0.06784      -     -    2s
     0     0    0.06784    0  242          -    0.06784      -     -    2s
     0     0    0.06784    0  218          -    0.06784      -     -    2s
     0     0    1.49037    0  232          -    1.49037      -     -    2s
     0     0    1.51660    0  255          -    1.51660      -     -    2s
     0     0    1.51660    0  269          -    1.51660      -     -    2s
     0     0    1.53520    0  278          -    1.53520      -     -    2s
     0     0    3.13635    0  242          -    3.13635      -     -    2s
     0     0    3.13635    0  217          -    3.13635      -     -    2s
     0     0    3.15284    0  236          -    3.15284      -     -    2s
     0     0    3.15284    0  251          -    3.15284      -     -    2s
     0     0    3.15284    0  254          -    3.15284      -     -    3s
     0     0    3.15284    0  243          -    3.15284      -     -    3s
     0     0    3.15284    0  252          -    3.15284      -     -    3s
     0     0    3.15284    0  252          -    3.15284      -     -    3s
     0     0    3.15284    0  252          -    3.15284      -     -    3s
     0     0    3.15284    0  233          -    3.15284      -     -    3s
     0     0    3.16472    0  251          -    3.16472      -     -    3s
     0     0    3.16472    0  270          -    3.16472      -     -    3s
     0     0    3.16472    0  285          -    3.16472      -     -    3s
     0     0    3.16472    0  256          -    3.16472      -     -    3s
     0     0    3.16472    0  255          -    3.16472      -     -    4s
     0     0    3.18244    0  267          -    3.18244      -     -    4s
     0     0    3.18334    0  277          -    3.18334      -     -    4s
     0     0    3.18925    0  260          -    3.18925      -     -    4s
     0     0    3.18925    0  255          -    3.18925      -     -    4s
     0     0    3.19931    0  268          -    3.19931      -     -    4s
     0     0    3.20158    0  275          -    3.20158      -     -    4s
     0     0    3.20158    0  275          -    3.20158      -     -    4s
     0     0    3.20158    0  275          -    3.20158      -     -    4s
     0     0    3.20845    0  275          -    3.20845      -     -    4s
     0     0    3.20845    0  275          -    3.20845      -     -    4s
H    0     0                      26.8347963    3.20845  88.0%     -    5s
     0     2    3.20845    0  275   26.83480    3.20845  88.0%     -    5s
H   21    30                      26.7610230    3.20845  88.0%   559    6s
H   56    58                      16.9830769    3.20845  81.1%   641    6s
H   72    86                      16.9828267    3.75124  77.9%   647    7s
H   79    86                      16.9261104    3.77961  77.7%   673    7s
H   85   114                      16.1856012    3.78448  76.6%   678    7s
H   89   114                      14.5923635    3.78885  74.0%   669    7s
H   93   114                      14.1136167    3.79881  73.1%   657    7s
H  113   151                      14.0771000    3.81885  72.9%   619    7s
H  115   151                      13.7364105    3.81933  72.2%   620    7s
H  194   207                      13.7358138    4.05493  70.5%   678    8s
H  207   226                      13.7011611    4.08605  70.2%   679    8s
H  238   274                      13.6794074    4.10739  70.0%   654    9s
H  336   348                      13.5926706    4.16931  69.3%   644    9s
   388   439    4.35973    8  289   13.59267    4.18192  69.2%   613   10s
H  401   439                      13.4108879    4.18379  68.8%   600   10s
H  423   439                      13.2461292    4.18631  68.4%   589   10s
H  439   487                      13.2319159    4.18889  68.3%   582   10s
H  441   487                      13.2312694    4.18911  68.3%   582   10s
H  459   487                      13.2235643    4.19127  68.3%   568   10s
H  468   487                      13.1164680    4.19222  68.0%   562   10s
H  580   590                      13.0015734    4.23944  67.4%   594   11s
H  586   590                      12.8231030    4.24161  66.9%   593   11s
H  603   605                      12.7954562    4.24964  66.8%   594   11s
H  626   658                      12.7820998    4.25603  66.7%   598   11s
H  657   658                      12.6379918    4.26147  66.3%   585   11s
   867   872    4.47086   10  237   12.63799    4.31600  65.8%   544   15s
  1051  1080    4.82104   11  217   12.63799    4.35960  65.5%   543   20s
H 1315  1284                      12.6368701    4.37209  65.4%   480   23s
H 1334  1509                      12.4795610    4.37225  65.0%   475   23s
H 1449  1508                      12.1903943    4.37264  64.1%   449   23s
H 1584  1508                      11.7898021    4.37370  62.9%   422   23s
H 1604  1690                      11.7585275    4.37415  62.8%   418   24s
H 1652  1690                      10.8022670    4.37470  59.5%   410   24s
H 1845  1811                      10.6225335    4.37853  58.8%   383   24s
  2135  1931    4.44546   10  275   10.62253    4.38833  58.7%   354   25s
  2152  1942    4.42012   10  251   10.62253    4.38833  58.7%   351   31s
  2182  1980    4.38833   27  283   10.62253    4.38833  58.7%   356   35s
  2735  2292    4.96311   36  251   10.62253    4.73141  55.5%   390   40s
  3057  2472    4.96749   39  238   10.62253    4.94894  53.4%   426   45s
H 3302  2467                      10.6225334    5.02864  52.7%   442   48s
  3406  2638    6.92094   37  204   10.62253    5.05262  52.4%   448   50s
